InboundTrucks  = 10;
OutboundTrucks = 10;
InboundDoors   = 8;
OutboundDoors  = 8;
ReleaseTime    = [17,72,108,102,97,8,32,15,63,97];
UnloadTime     = [35,11,34,34,16,12,27,22,35,15];
LoadTime       = [18,16,17,11,6,5,20,11,9,5];
TransferTime   = [| 4,0,8,6,0,6,5,7,4,0 | 8,5,3,4,2,3,5,8,6,3 | 6,8,4,0,4,8,0,6,0,0 | 0,5,2,7,5,8,0,0,7,0 | 3,3,0,7,8,0,2,0,2,6 | 4,8,8,8,8,3,8,6,3,0 | 0,3,3,5,5,2,0,0,4,0 | 0,0,2,7,0,2,0,3,0,5 | 0,4,8,2,0,3,0,3,7,4 | 0,8,4,0,6,7,7,4,2,5 |];
